============================[ Problem Statistics ]=============================|                                                                             ||  Number of variables:          4242                                         ||  Number of clauses:            9959                                         ||  Parse time:                   0.35 s                                       ||                                                                             |============================[ Search Statistics ]==============================| Conflicts |          ORIGINAL         |          LEARNT          | Progress ||           |    Vars  Clauses Literals |    Limit  Clauses Lit/Cl |          |===============================================================================|       100 |    1591     6164   554325 |     2260      100     53 | 62.501 % |===============================================================================restarts              : 3conflicts             : 203            (378 /sec)decisions             : 470            (0.00 % random) (875 /sec)propagations          : 11659          (21711 /sec)conflict literals     : 14361          (95.14 % deleted)CPU time              : 0.537 sSATISFIABLE